
Gurobi 6.5.2 (linux64) logging started Tue Mar 21 10:55:22 2017


Gurobi 6.5.2 (linux64) logging started Tue Mar 21 10:55:22 2017

Optimize a model with 201 rows, 1585 columns and 3469 nonzeros
Coefficient statistics:
  Matrix range    [1e+00, 2e+00]
  Objective range [1e+00, 1e+02]
  Bounds range    [1e+00, 1e+00]
  RHS range       [1e+00, 1e+00]
Found heuristic solution: objective 2577
Presolve removed 57 rows and 7 columns
Presolve time: 0.01s
Presolved: 144 rows, 1578 columns, 3215 nonzeros
Variable types: 0 continuous, 1578 integer (1578 binary)

Root relaxation: objective 9.087500e+02, 125 iterations, 0.00 seconds

    Nodes    |    Current Node    |     Objective Bounds      |     Work
 Expl Unexpl |  Obj  Depth IntInf | Incumbent    BestBd   Gap | It/Node Time

     0     0  908.75000    0   39 2577.00000  908.75000  64.7%     -    0s
     0     0  971.33333    0   42 2577.00000  971.33333  62.3%     -    0s
     0     0  986.50000    0  106 2577.00000  986.50000  61.7%     -    0s
     0     0  995.50842    0  118 2577.00000  995.50842  61.4%     -    0s
     0     0  996.34936    0  118 2577.00000  996.34936  61.3%     -    0s
     0     0 1000.00750    0  115 2577.00000 1000.00750  61.2%     -    0s
     0     0 1000.90385    0  119 2577.00000 1000.90385  61.2%     -    0s
     0     0 1002.26500    0  123 2577.00000 1002.26500  61.1%     -    0s
     0     0 1002.26500    0  123 2577.00000 1002.26500  61.1%     -    0s
     0     2 1002.26500    0  123 2577.00000 1002.26500  61.1%     -    0s
H 1424  1214                    1196.0000000 1027.85219  14.1%   7.3    4s
H 1424  1154                    1073.0000000 1027.85219  4.21%   7.3    4s
  1432  1161 1073.00000   70   79 1073.00000 1028.54575  4.14%   7.8    5s
  1473  1190 1045.31545   39   91 1073.00000 1034.00605  3.63%   8.5   10s
* 2330  1351              61    1064.0000000 1035.48187  2.68%  12.7   11s
* 3426   725              48    1044.0000000 1037.13198  0.66%  14.8   12s

Cutting planes:
  Gomory: 31
  Cover: 129
  Clique: 1
  MIR: 5
  Flow cover: 21
  Zero half: 51
  Lazy constraints: 87

Explored 4584 nodes (73296 simplex iterations) in 13.00 seconds
Thread count was 4 (of 4 available processors)

Optimal solution found (tolerance 1.00e-04)
Best objective 1.044000000000e+03, best bound 1.044000000000e+03, gap 0.0%
